$comment0
 arc geometry, initial relaxation was with MMFF94s

  B3LYP-D3 functional (B3LYP with dispersion correction)
  Ref: S. Grimme, Jens Antony, Stephan Ehrlich, and Helge Krieg J. Chem. Phy. 132, 154104 (2010).
$end

$comment

$end

$rem
jobtype         opt
method          B3LYP
basis           6-31G*
DFT_D       EMPIRICAL_GRIMME3
DFT_D3_RS6  1261
DFT_D3_S8   1703
DFT_D3_3BODY    FALSE
SCF_PRINT 1
$end

$opt
FIXED
1 Z
2 Z
3 Z
4 Z
5 Z
6 Z
7 Z
8 Z
9 Z
10 Z
11 Z
12 Z
13 Z
14 Z
15 Z
16 Z
17 Z
18 Z
19 Z
20 Z
21 Z
22 Z
23 Z
24 Z
25 Z
26 Z
27 Z
28 Z
29 Z
30 Z
31 Z
32 Z
33 Z
34 Z
35 Z
36 Z
37 Z
38 Z
39 Z
40 Z
41 Z
42 Z
43 Z
44 Z
ENDFIXED
$end

$molecule
0 1
6 5.89555 -2.17658 0
6 4.92188 -1.14462 0
6 5.3756 0.186576 0
6 6.74561 0.452167 0
6 7.70553 -0.590326 0
6 7.25698 -1.91289 0
7 7.41367 1.67316 0
6 8.78282 1.43187 0
6 9.00406 0.0316034 0
6 9.84259 2.34096 0
6 11.3673 0.445262 0
6 10.3122 -0.458214 0
6 12.3313 2.77846 0
6 6.80666 2.98433 0
6 -3.02929 -2.82319 0
6 -3.46362 -1.47305 0
6 -2.48231 -0.462923 0
6 -1.13027 -0.809701 0
6 -0.717056 -2.16518 0
6 -1.68751 -3.16912 0
7 0.00295096 0.000653546 0
6 1.13446 -0.812195 0
6 0.718935 -2.16667 0
6 2.48186 -0.459231 0
6 3.46327 -1.4709 0
6 3.02676 -2.82224 0
6 1.68493 -3.17165 0
6 0.018672 1.445 0
6 -11.3666 0.447458 0
6 -11.1491 1.83979 0
6 -9.84172 2.34133 0
6 -8.77392 1.44099 0
6 -8.99787 0.0382566 0
6 -10.3054 -0.452014 0
7 -7.40228 1.67269 0
6 -6.73922 0.449433 0
6 -7.70205 -0.589079 0
6 -5.37205 0.185151 0
6 -4.92255 -1.14905 0
6 -5.9005 -2.17907 0
6 -7.2628 -1.91275 0
6 -12.3228 2.79466 0
6 -6.75229 2.96075 0
6 11.1472 1.84087 0
1 12.0171 3.82704 0
1 12.9644 2.61701 -0.881718
1 12.9644 2.61701 0.881718
1 5.71974 2.88155 0
1 7.09982 3.55154 -0.892196
1 7.09982 3.55154 0.892196
1 -1.00775 1.81642 0
1 0.525481 1.83195 -0.892875
1 0.525481 1.83195 0.892875
1 -7.51006 3.74582 0
1 -6.12595 3.08122 -0.892847
1 -6.12595 3.08122 0.892847
1 -13.2755 2.25536 0
1 -12.3104 3.44686 -0.882706
1 -12.3104 3.44686 0.882706
1 -12.3876 0.0727079 0
1 -10.4895 -1.52376 0
1 -7.97957 -2.73069 0
1 -5.5981 -3.21855 0
1 -3.7559 -3.62596 0
1 -1.39724 -4.21663 0
1 1.38791 -4.21774 0
1 3.74974 -3.62753 0
1 5.58543 -3.21391 0
1 7.96578 -2.73662 0
1 10.4938 -1.53027 0
1 12.3896 0.0749365 0
1 9.66333 3.4126 0
1 4.66733 1.00652 0
1 2.7539 0.589591 0
1 -2.77115 0.581117 0
1 -4.67299 1.0123 0
1 -9.68299 3.41633 0
$end
